p edge 54 427
e 1 9
e 1 10
e 1 12
e 1 18
e 1 31
e 1 34
e 1 40
e 1 50
e 1 53
e 1 54
e 2 6
e 2 10
e 2 11
e 2 16
e 2 17
e 2 22
e 2 25
e 2 29
e 2 32
e 2 34
e 2 36
e 2 38
e 2 39
e 2 41
e 2 43
e 2 46
e 2 49
e 2 50
e 2 51
e 3 11
e 3 12
e 3 14
e 3 18
e 3 22
e 3 23
e 3 27
e 3 29
e 3 31
e 3 41
e 3 48
e 3 49
e 4 5
e 4 8
e 4 10
e 4 15
e 4 18
e 4 22
e 4 26
e 4 29
e 4 30
e 4 33
e 4 39
e 4 43
e 4 49
e 4 50
e 4 51
e 4 52
e 5 11
e 5 15
e 5 20
e 5 22
e 5 33
e 5 35
e 5 37
e 5 38
e 5 42
e 5 50
e 5 52
e 6 9
e 6 10
e 6 14
e 6 15
e 6 17
e 6 18
e 6 22
e 6 24
e 6 27
e 6 28
e 6 29
e 6 30
e 6 31
e 6 41
e 6 43
e 6 46
e 6 47
e 6 50
e 6 53
e 7 9
e 7 11
e 7 12
e 7 17
e 7 18
e 7 23
e 7 24
e 7 28
e 7 30
e 7 34
e 7 35
e 7 36
e 7 38
e 7 41
e 7 43
e 7 46
e 7 50
e 7 53
e 7 54
e 8 9
e 8 12
e 8 13
e 8 16
e 8 18
e 8 19
e 8 21
e 8 23
e 8 24
e 8 25
e 8 27
e 8 29
e 8 36
e 8 37
e 8 41
e 8 42
e 8 46
e 8 51
e 8 53
e 8 54
e 9 10
e 9 12
e 9 15
e 9 17
e 9 18
e 9 20
e 9 23
e 9 30
e 9 35
e 9 36
e 9 38
e 9 39
e 9 45
e 9 46
e 9 48
e 9 52
e 9 53
e 10 14
e 10 15
e 10 17
e 10 18
e 10 19
e 10 20
e 10 22
e 10 25
e 10 26
e 10 27
e 10 33
e 10 35
e 10 38
e 10 47
e 10 52
e 10 53
e 11 14
e 11 15
e 11 19
e 11 22
e 11 23
e 11 24
e 11 26
e 11 31
e 11 33
e 11 37
e 11 40
e 11 43
e 11 49
e 12 14
e 12 15
e 12 25
e 12 31
e 12 38
e 12 43
e 12 44
e 12 45
e 12 54
e 13 15
e 13 16
e 13 19
e 13 24
e 13 28
e 13 32
e 13 38
e 13 39
e 13 41
e 13 42
e 13 43
e 13 45
e 13 52
e 13 53
e 14 16
e 14 18
e 14 21
e 14 35
e 14 38
e 14 42
e 14 44
e 14 48
e 14 50
e 15 17
e 15 19
e 15 20
e 15 21
e 15 22
e 15 24
e 15 25
e 15 32
e 15 33
e 15 39
e 15 42
e 15 44
e 15 51
e 16 18
e 16 22
e 16 23
e 16 28
e 16 32
e 16 33
e 16 38
e 16 42
e 16 44
e 16 45
e 16 50
e 17 25
e 17 28
e 17 37
e 17 39
e 17 40
e 17 46
e 17 47
e 17 49
e 17 53
e 18 21
e 18 24
e 18 28
e 18 30
e 18 36
e 18 38
e 18 39
e 18 46
e 18 52
e 19 23
e 19 27
e 19 31
e 19 32
e 19 33
e 19 34
e 19 36
e 19 39
e 19 40
e 19 43
e 19 45
e 19 50
e 19 54
e 20 27
e 20 31
e 20 33
e 20 37
e 20 39
e 20 40
e 20 49
e 20 52
e 21 22
e 21 23
e 21 32
e 21 35
e 21 36
e 21 41
e 21 43
e 21 45
e 21 51
e 21 53
e 22 30
e 22 34
e 22 39
e 22 49
e 22 53
e 23 28
e 23 30
e 23 36
e 23 40
e 23 42
e 23 45
e 23 46
e 23 54
e 24 27
e 24 32
e 24 35
e 24 42
e 24 44
e 24 47
e 24 50
e 24 53
e 25 29
e 25 34
e 25 35
e 25 39
e 25 45
e 25 47
e 25 51
e 26 27
e 26 31
e 26 32
e 26 35
e 26 53
e 27 33
e 27 35
e 27 37
e 27 41
e 27 44
e 27 45
e 27 47
e 27 50
e 27 54
e 28 31
e 28 33
e 28 41
e 28 44
e 28 46
e 28 50
e 28 51
e 28 53
e 29 37
e 29 38
e 29 42
e 29 44
e 29 45
e 29 46
e 29 49
e 30 33
e 30 36
e 30 40
e 30 41
e 30 45
e 30 46
e 30 50
e 30 51
e 31 35
e 31 39
e 31 43
e 31 48
e 31 54
e 32 33
e 32 34
e 32 35
e 32 37
e 32 41
e 32 43
e 32 45
e 32 53
e 33 34
e 33 36
e 33 39
e 33 43
e 33 46
e 33 52
e 33 54
e 34 37
e 34 38
e 34 42
e 34 43
e 34 46
e 34 47
e 34 49
e 34 51
e 34 53
e 34 54
e 35 42
e 35 44
e 35 46
e 35 49
e 36 37
e 36 43
e 36 44
e 36 51
e 37 42
e 37 47
e 37 52
e 38 45
e 38 49
e 38 54
e 39 44
e 39 45
e 39 48
e 39 52
e 39 54
e 40 41
e 40 43
e 40 52
e 40 53
e 40 54
e 41 42
e 41 43
e 41 45
e 41 46
e 41 52
e 41 53
e 42 43
e 42 44
e 42 45
e 42 49
e 42 50
e 43 48
e 43 52
e 44 47
e 44 49
e 45 51
e 45 52
e 45 54
e 46 49
e 46 51
e 46 52
e 46 53
e 47 51
e 48 52
e 49 51
e 49 53
e 49 54
e 50 54
e 51 52
e 51 54
e 53 54
